(set-info :smt-lib-version 2.7)
(set-logic QF_SNIA)
(set-info :source  | 
Generated by: Johannes Bauer
Generated on: 2026-06-21
Generator: mgm A12 Test Data Generator
Application: ELSTER
Target solver: Z3, CVC5
Script is based on the ELSTER form: capital gains tax registration (A / KapEStInvStG)
Characteristic of the form: easy.
In this script, all terms of the form (* x1 x2 x3 ...) are in the form (* x1 c2 c3 ...),
all terms of the form (div x y) are in the form (div x c) and the symbol mod is exclusively used in the form (mod x c),
where x, y, and x1, x2, x3 ... are free constants and c, c2, c3 ... are terms in the form n or (-n) for some numeral n.
The script starts with the base constraints, which define a valid data set for the corresponding form. After the first (push 1), control constraints follow.
The goal of the control constraints in this script is to fill up a data set with values, after the characteristics of the high test coverage were placed.
number variables: 163, number constraints: 146
"https://www.elster.de/eportal/start?locale=en_US"
"https://www.mgm-tp.com/q12-tdg.html"
"https://a12.ai/public-sector"
|)
(set-info :license "https://creativecommons.org/licenses/by/4.0/")
(set-info :category "industrial")
(set-info :major-phase |variable declarations|)
(declare-fun B1-F () Bool)
(declare-fun B2-F () Bool)
(declare-fun S3-S () String)
(declare-fun S4-S () String)
(declare-fun B5-F () Bool)
(declare-fun S5-S () String)
(declare-fun B6-F () Bool)
(declare-fun B7-F () Bool)
(declare-fun B8-F () Bool)
(declare-fun B9-F () Bool)
(declare-fun I9-y () Int)
(declare-fun B10-F () Bool)
(declare-fun S10-S () String)
(declare-fun B11-F () Bool)
(declare-fun B12-F () Bool)
(declare-fun S12-S () String)
(declare-fun B13-F () Bool)
(declare-fun I13-y () Int)
(declare-fun I13-m () Int)
(declare-fun I13-d () Int)
(declare-fun B14-F () Bool)
(declare-fun I14-y () Int)
(declare-fun I14-m () Int)
(declare-fun I14-d () Int)
(declare-fun B15-F () Bool)
(declare-fun B16-F () Bool)
(declare-fun B17-F () Bool)
(declare-fun I17 () Int)
(declare-fun B18-F () Bool)
(declare-fun I18 () Int)
(declare-fun B19-F () Bool)
(declare-fun I19 () Int)
(declare-fun B20-F () Bool)
(declare-fun B21-F () Bool)
(declare-fun B22-F () Bool)
(declare-fun I22 () Int)
(declare-fun B23-F () Bool)
(declare-fun I23 () Int)
(declare-fun B24-F () Bool)
(declare-fun I24 () Int)
(declare-fun B25-F () Bool)
(declare-fun B26-F () Bool)
(declare-fun B27-F () Bool)
(declare-fun I27 () Int)
(declare-fun B28-F () Bool)
(declare-fun I28 () Int)
(declare-fun B29-F () Bool)
(declare-fun I29 () Int)
(declare-fun I30-s-y () Int)
(declare-fun I30-s-m () Int)
(declare-fun I30-s-d () Int)
(declare-fun I30-e-y () Int)
(declare-fun I30-e-m () Int)
(declare-fun I30-e-d () Int)
(declare-fun I31 () Int)
(declare-fun I32 () Int)
(declare-fun I33 () Int)
(declare-fun I34 () Int)
(declare-fun I35 () Int)
(declare-fun I36 () Int)
(declare-fun I37 () Int)
(declare-fun I38 () Int)
(declare-fun I39 () Int)
(declare-fun I40-s-y () Int)
(declare-fun I40-s-m () Int)
(declare-fun I40-s-d () Int)
(declare-fun I40-e-y () Int)
(declare-fun I40-e-m () Int)
(declare-fun I40-e-d () Int)
(declare-fun I41 () Int)
(declare-fun I42 () Int)
(declare-fun I43 () Int)
(declare-fun I44 () Int)
(declare-fun I45 () Int)
(declare-fun I46 () Int)
(declare-fun I47 () Int)
(declare-fun I48 () Int)
(declare-fun I49 () Int)
(declare-fun I50 () Int)
(declare-fun I51 () Int)
(declare-fun I52 () Int)
(declare-fun I53 () Int)
(declare-fun I54 () Int)
(declare-fun I55 () Int)
(declare-fun I56 () Int)
(declare-fun I57 () Int)
(declare-fun I58 () Int)
(declare-fun I59 () Int)
(declare-fun I60 () Int)
(declare-fun I61 () Int)
(declare-fun I62 () Int)
(declare-fun I63 () Int)
(declare-fun I64 () Int)
(declare-fun I65 () Int)
(declare-fun I66 () Int)
(declare-fun I67 () Int)
(declare-fun I68 () Int)
(declare-fun I69 () Int)
(declare-fun I70 () Int)
(declare-fun B71-F () Bool)
(declare-fun B72-F () Bool)
(declare-fun I72 () Int)
(declare-fun B73-F () Bool)
(declare-fun I73 () Int)
(declare-fun B74-F () Bool)
(declare-fun B75-F () Bool)
(declare-fun I75-y () Int)
(declare-fun I75-m () Int)
(declare-fun I75-d () Int)
(declare-fun B76-F () Bool)
(declare-fun B77-F () Bool)
(declare-fun I77 () Int)
(declare-fun B78-F () Bool)
(declare-fun I78 () Int)
(declare-fun B79-F () Bool)
(declare-fun B80-F () Bool)
(declare-fun B81-F () Bool)
(declare-fun I81 () Int)
(declare-fun B82-F () Bool)
(declare-fun I82 () Int)
(declare-fun B83-F () Bool)
(declare-fun I83 () Int)
(declare-fun B84-F () Bool)
(declare-fun I84 () Int)
(declare-fun B85-F () Bool)
(declare-fun I85 () Int)
(declare-fun B86-F () Bool)
(declare-fun I86 () Int)
(declare-fun B87-F () Bool)
(declare-fun I87 () Int)
(declare-fun B88-F () Bool)
(declare-fun I88 () Int)
(declare-fun B89-F () Bool)
(declare-fun I89 () Int)
(declare-fun B90-F () Bool)
(declare-fun I90 () Int)
(declare-fun B91-F () Bool)
(declare-fun I91 () Int)
(declare-fun B92-F () Bool)
(declare-fun I92 () Int)
(declare-fun B93-F () Bool)
(declare-fun I93 () Int)
(declare-fun B94-F () Bool)
(declare-fun I94 () Int)
(declare-fun B95-F () Bool)
(declare-fun I95 () Int)
(declare-fun B96-F () Bool)
(declare-fun I96 () Int)
(declare-fun B97-F () Bool)
(declare-fun I97 () Int)
(declare-fun B98-F () Bool)
(declare-fun I99 () Int)
(declare-fun B100-F () Bool)
(declare-fun B101-F () Bool)
(declare-fun B102-F () Bool)
(declare-fun B103-F () Bool)
(declare-fun B104-F () Bool)
(declare-fun B105-F () Bool)
(declare-fun B106-F () Bool)
(declare-fun B107-F () Bool)
(declare-fun B108-F () Bool)
(declare-fun B109-F () Bool)
(declare-fun B110-F () Bool)
(set-info :major-phase |base constraints|)
(set-info :base-constraint-type ||)
(assert (or B1-F B9-F B10-F))
(set-info :base-constraint-type |constraints defining hierarchy (group is filled, if a child is filled)|)
(assert (= B74-F (or B75-F B76-F)))
(assert (= B76-F (or B77-F B78-F)))
(assert (= B100-F (or B101-F B102-F)))
(assert (= B71-F (or B72-F B73-F)))
(assert (or B12-F B13-F B14-F B15-F B20-F B25-F))
(assert (= B15-F (or B16-F B17-F B18-F B19-F)))
(assert (= B20-F (or B21-F B22-F B23-F B24-F)))
(assert (= B25-F (or B26-F B27-F B28-F B29-F)))
(assert (= B103-F (or B104-F B105-F)))
(assert (= B105-F (or B106-F B107-F B108-F B109-F)))
(assert (= B79-F (or B80-F B98-F)))
(assert (= B80-F (or B81-F B82-F B83-F B84-F B85-F B86-F B87-F B88-F B89-F B90-F B91-F B92-F B93-F B94-F B95-F B96-F B97-F)))
(set-info :base-constraint-type |domainconstraints number-fields|)
(assert (ite B77-F (and (<= I77 999999999999) (>= I77 0)) (= I77 0)))
(assert (ite B78-F (and (<= I78 999999999999) (>= I78 0)) (= I78 0)))
(assert (ite B72-F (and (<= I72 999999999999) (>= I72 (- 999999999999))) (= I72 0)))
(assert (ite B73-F (and (<= I73 99999999999999) (>= I73 (- 99999999999999))) (= I73 0)))
(assert (ite B17-F (and (<= I17 999999999999) (>= I17 (- 999999999999))) (= I17 0)))
(assert (ite B18-F (and (<= I18 999999999999) (>= I18 (- 999999999999))) (= I18 0)))
(assert (ite B19-F (and (<= I19 99999999999999) (>= I19 (- 99999999999999))) (= I19 0)))
(assert (ite B22-F (and (<= I22 999999999999) (>= I22 (- 999999999999))) (= I22 0)))
(assert (ite B23-F (and (<= I23 999999999999) (>= I23 (- 999999999999))) (= I23 0)))
(assert (ite B24-F (and (<= I24 99999999999999) (>= I24 (- 99999999999999))) (= I24 0)))
(assert (ite B27-F (and (<= I27 999999999999) (>= I27 (- 999999999999))) (= I27 0)))
(assert (ite B28-F (and (<= I28 999999999999) (>= I28 (- 999999999999))) (= I28 0)))
(assert (ite B29-F (and (<= I29 99999999999999) (>= I29 (- 99999999999999))) (= I29 0)))
(assert (= I50 0))
(assert (= I51 0))
(assert (= I52 0))
(assert (= I53 0))
(assert (= I54 0))
(assert (= I55 0))
(assert (= I56 0))
(assert (= I57 0))
(assert (= I58 0))
(assert (= I59 0))
(assert (= I60 0))
(assert (= I61 0))
(assert (= I62 0))
(assert (= I63 0))
(assert (= I64 0))
(assert (= I65 0))
(assert (= I66 0))
(assert (= I67 0))
(assert (= I68 0))
(assert (= I69 0))
(assert (= I70 0))
(assert (= I31 0))
(assert (= I32 0))
(assert (= I33 0))
(assert (= I34 0))
(assert (= I35 0))
(assert (= I36 0))
(assert (= I37 0))
(assert (= I38 0))
(assert (= I39 0))
(assert (= I41 0))
(assert (= I42 0))
(assert (= I43 0))
(assert (= I44 0))
(assert (= I45 0))
(assert (= I46 0))
(assert (= I47 0))
(assert (= I48 0))
(assert (= I49 0))
(assert (ite B84-F (and (<= I84 99999999999999) (>= I84 (- 9999999999999))) (= I84 0)))
(assert (ite B83-F (and (<= I83 99999999999999) (>= I83 (- 9999999999999))) (= I83 0)))
(assert (ite B81-F (and (<= I81 99999999999999) (>= I81 (- 9999999999999))) (= I81 0)))
(assert (ite B82-F (and (<= I82 99999999999999) (>= I82 (- 9999999999999))) (= I82 0)))
(assert (ite B85-F (and (<= I85 99999999999999) (>= I85 (- 9999999999999))) (= I85 0)))
(assert (ite B87-F (and (<= I87 99999999999999) (>= I87 (- 9999999999999))) (= I87 0)))
(assert (ite B86-F (and (<= I86 99999999999999) (>= I86 (- 9999999999999))) (= I86 0)))
(assert (ite B88-F (and (<= I88 99999999999999) (>= I88 (- 9999999999999))) (= I88 0)))
(assert (ite B89-F (and (<= I89 99999999999999) (>= I89 (- 9999999999999))) (= I89 0)))
(assert (ite B90-F (and (<= I90 99999999999999) (>= I90 (- 9999999999999))) (= I90 0)))
(assert (ite B91-F (and (<= I91 99999999999999) (>= I91 (- 9999999999999))) (= I91 0)))
(assert (ite B95-F (and (<= I95 99999999999999) (>= I95 (- 9999999999999))) (= I95 0)))
(assert (ite B92-F (and (<= I92 99999999999999) (>= I92 (- 9999999999999))) (= I92 0)))
(assert (ite B93-F (and (<= I93 99999999999999) (>= I93 (- 9999999999999))) (= I93 0)))
(assert (ite B94-F (and (<= I94 99999999999999) (>= I94 (- 9999999999999))) (= I94 0)))
(assert (ite B96-F (and (<= I96 99999999999999) (>= I96 (- 9999999999999))) (= I96 0)))
(assert (ite B97-F (and (<= I97 99999999999999) (>= I97 (- 9999999999999))) (= I97 0)))
(assert (ite B98-F (and (<= I99 99999999999999) (>= I99 (- 9999999999999))) (= I99 0)))
(set-info :base-constraint-type |domainconstraints date-fields|)
(assert (and (ite B75-F (and (> I75-y 1900) (< I75-y 2100)) (= I75-y 0)) (ite B75-F (and (> I75-m 0) (<= I75-m 12)) (= I75-m 0)) (ite B75-F (and (> I75-d 0) (<= I75-d (ite (or (= I75-m 0) (= I75-m 1) (= I75-m 3) (= I75-m 5) (= I75-m 7) (= I75-m 8) (= I75-m 10) (= I75-m 12)) 31 (ite (or (= I75-m 4) (= I75-m 6) (= I75-m 9) (= I75-m 11)) 30 (ite (= (mod I75-y 4) 0) 29 28))))) (= I75-d 0))))
(assert (ite B9-F (and (> I9-y 1900) (< I9-y 2100)) (= I9-y 0)))
(assert (and (ite B14-F (and (> I14-y 1900) (< I14-y 2100)) (= I14-y 0)) (ite B14-F (and (> I14-m 0) (<= I14-m 12)) (= I14-m 0)) (ite B14-F (and (> I14-d 0) (<= I14-d (ite (or (= I14-m 0) (= I14-m 1) (= I14-m 3) (= I14-m 5) (= I14-m 7) (= I14-m 8) (= I14-m 10) (= I14-m 12)) 31 (ite (or (= I14-m 4) (= I14-m 6) (= I14-m 9) (= I14-m 11)) 30 (ite (= (mod I14-y 4) 0) 29 28))))) (= I14-d 0))))
(assert (and (ite B13-F (and (> I13-y 1900) (< I13-y 2100)) (= I13-y 0)) (ite B13-F (and (> I13-m 0) (<= I13-m 12)) (= I13-m 0)) (ite B13-F (and (> I13-d 0) (<= I13-d (ite (or (= I13-m 0) (= I13-m 1) (= I13-m 3) (= I13-m 5) (= I13-m 7) (= I13-m 8) (= I13-m 10) (= I13-m 12)) 31 (ite (or (= I13-m 4) (= I13-m 6) (= I13-m 9) (= I13-m 11)) 30 (ite (= (mod I13-y 4) 0) 29 28))))) (= I13-d 0))))
(assert (or (< I30-s-y I30-e-y) (and (= I30-s-y I30-e-y) (< I30-s-m I30-e-m)) (and (= I30-s-y I30-e-y) (= I30-s-m I30-e-m) (<= I30-s-d I30-e-d))))
(assert (or (< I40-s-y I40-e-y) (and (= I40-s-y I40-e-y) (< I40-s-m I40-e-m)) (and (= I40-s-y I40-e-y) (= I40-s-m I40-e-m) (<= I40-s-d I40-e-d))))
(set-info :base-constraint-type |constraints for date-strategy|)
(assert (=> B12-F (and (> (str.to_int S12-S) 1900) (< (str.to_int S12-S) 2100))))
(assert (=> B12-F (and (> (str.to_int S12-S) 1900) (< (str.to_int S12-S) 2100))))
(set-info :base-constraint-type |domainconstraints string fields|)
(assert (ite B12-F (and (str.in_re S12-S (re.+ (re.range "0" "9"))) (>= (str.len S12-S) 4) (<= (str.len S12-S) 4)) (= S12-S "")))
(set-info :base-constraint-type |domainconstraints index-based string fields|)
(assert (or (= S4-S "0") (= S4-S "1")))
(assert (ite B10-F (or (= S10-S "11") (= S10-S "01") (= S10-S "12") (= S10-S "02") (= S10-S "03") (= S10-S "04") (= S10-S "05") (= S10-S "06") (= S10-S "07") (= S10-S "08") (= S10-S "09") (= S10-S "10")) (= S10-S "")))
(assert (or (= S3-S "2216060427666") (= S3-S "2815094023008") (= S3-S "1060048649864") (= S3-S "2348008413417") (= S3-S "2702024686052") (= S3-S "3207051220872") (= S3-S "1123012960769") (= S3-S "5103096558745") (= S3-S "2632041436639") (= S3-S "3103071321727") (= S3-S "3062087900803") (= S3-S "9170050074951") (= S3-S "4084068125545") (= S3-S "2460083378687") (= S3-S "2189063488000")))
(assert (ite B5-F (or (= S5-S "2216060427666") (= S5-S "2815094023008") (= S5-S "1060048649864") (= S5-S "2348008413417") (= S5-S "2702024686052") (= S5-S "3207051220872") (= S5-S "1123012960769") (= S5-S "5103096558745") (= S5-S "2632041436639") (= S5-S "3103071321727") (= S5-S "3062087900803") (= S5-S "9170050074951") (= S5-S "4084068125545") (= S5-S "2460083378687") (= S5-S "2189063488000")) (= S5-S "")))
(set-info :base-constraint-type |constraints, guarding filling of calculations|)
(assert (= (or B18-F B23-F B28-F) B72-F))
(assert (= (or B19-F B24-F B29-F) B73-F))
(assert (= (or B84-F B83-F B85-F B81-F B82-F B86-F B87-F B88-F B89-F B90-F B97-F B91-F B94-F B95-F B92-F B93-F B96-F B72-F) B98-F))
(set-info :base-constraint-type |constraints from validation-rules|)
(assert (not (and B78-F B77-F (distinct I77 0) (distinct I78 (div (* I77 15) 100)))))
(assert (not (and B75-F (or (< I75-y 2025) (> I75-y 2025)))))
(assert (not (and (or B102-F B101-F) (not (and B102-F B101-F)))))
(assert (not (and (or B18-F B23-F B28-F) (not B72-F))))
(assert (not (and (or B19-F B24-F B29-F) (not B73-F))))
(assert (not (and B72-F (not B81-F) (not B82-F) (not B83-F) (not B84-F) (not B85-F) (not B86-F) (not B87-F) (not B88-F) (not B89-F) (not B90-F) (not B91-F) (not B92-F) (not B93-F) (not B94-F) (not B95-F) (not B96-F) (not B97-F) (not B98-F))))
(assert (not (and B72-F (or B18-F B23-F B28-F) (distinct I72 (+ I18 I23 I28 I32 I35 I38 I42 I45 I48 I51 I54 I57 I60 I63 I66 I69)))))
(assert (not (and B73-F (or B19-F B24-F B29-F) (distinct I73 (+ I19 I24 I29 I33 I36 I39 I43 I46 I49 I52 I55 I58 I61 I64 I67 I70)))))
(assert (not (and B9-F (or (< I9-y 2025) (> I9-y 2025)))))
(assert (not (and B14-F B13-F (or (> I14-y I13-y) (and (= I14-y I13-y) (> I14-m I13-m)) (and (= I14-y I13-y) (= I14-m I13-m) (> I14-d I13-d))))))
(assert (not (and B13-F (or (distinct I13-y (ite B9-F I9-y 0)) (distinct I13-m (str.to_int (ite B10-F S10-S "")))))))
(assert (not (and B12-F B14-F (>= (ite (and (>= (str.to_int S12-S) 1) (<= (str.to_int S12-S) 9999)) (+ (- I14-y (str.to_int S12-S)) (ite (or (< (str.to_int S12-S) I14-y) (and (= (str.to_int S12-S) I14-y) (< 5 I14-m)) (and (= (str.to_int S12-S) I14-y) (= 5 I14-m) (< 1 I14-d)) (and (= (str.to_int S12-S) I14-y) (= 5 I14-m) (= 1 I14-d))) (ite (or (< 5 I14-m) (and (= 5 I14-m) (<= 1 I14-d))) 0 (- 1)) (ite (or (> 5 I14-m) (and (= 5 I14-m) (>= 1 I14-d))) 0 1))) 0) 1))))
(assert (not (and B13-F (< I13-y (str.to_int (str.substr (ite B12-F S12-S "") 0 4))))))
(assert (not (and (not (and B14-F B13-F B12-F)) (or B15-F B20-F B25-F))))
(assert (not (and (or B12-F B13-F B14-F) (not B15-F) (not B20-F) (not B25-F))))
(assert (not (and B12-F (> (str.to_int (str.substr S12-S 0 4)) 2025))))
(assert (not (and (or B17-F B22-F B27-F) (or (and (distinct I17 0) (= I18 0)) (and (distinct I22 0) (= I23 0)) (and (distinct I27 0) (= I28 0))))))
(assert (not (and B18-F B19-F (> (ite (>= (- I19 (div (* I18 55) 10)) 0) (- I19 (div (* I18 55) 10)) (- (- I19 (div (* I18 55) 10)))) 100))))
(assert (not (and (or B16-F B17-F B18-F B19-F) (not (and B16-F B17-F B18-F B19-F)))))
(assert (not (and (or B18-F B23-F B28-F) (or (> (* I18 100) (+ (* I17 15) 100)) (> (* I23 100) (+ (* I22 15) 100)) (> (* I28 100) (+ (* I27 15) 100))))))
(assert (not (and B23-F B24-F (> (ite (>= (- I24 (div (* I23 55) 10)) 0) (- I24 (div (* I23 55) 10)) (- (- I24 (div (* I23 55) 10)))) 100))))
(assert (not (and (or B21-F B22-F B23-F B24-F) (not (and B21-F B22-F B23-F B24-F)))))
(assert (not (and B28-F B29-F (> (ite (>= (- I29 (div (* I28 55) 10)) 0) (- I29 (div (* I28 55) 10)) (- (- I29 (div (* I28 55) 10)))) 100))))
(assert (not (and (or B26-F B27-F B28-F B29-F) (not (and B26-F B27-F B28-F B29-F)))))
(assert (not (or (and (not B1-F) (not B2-F)) (and B1-F B2-F))))
(assert (not (and B1-F B75-F)))
(assert (not (and B1-F (not (and B9-F B10-F)))))
(assert (not (and B1-F B9-F B10-F (or (< 2026 I9-y) (and (= 2026 I9-y) (<= 6 (str.to_int S10-S)))))))
(assert (not (and B1-F B9-F B10-F (or (< 2027 I9-y) (and (= 2027 I9-y) (<= 6 (str.to_int S10-S)))))))
(assert (not (and B2-F (or B9-F B10-F B11-F B12-F B13-F B14-F B16-F B17-F B18-F B19-F B21-F B22-F B23-F B24-F B26-F B27-F B28-F B29-F B72-F B73-F))))
(assert (not (and B2-F (not (and B75-F B77-F B78-F)))))
(assert (not (and B104-F (not (and B106-F B107-F)))))
(assert (not (and (not B104-F) (or B106-F B107-F))))
(assert (not (and B5-F (= S4-S "0"))))
(assert (not (and B5-F (= S5-S S3-S))))
(assert (not (and B74-F (not B2-F))))
(assert (not (and (or B84-F B83-F B85-F B81-F B82-F B86-F B87-F B88-F B89-F B90-F B97-F B91-F B94-F B95-F B92-F B93-F B96-F) (not B98-F))))
(assert (not (and B98-F (or B84-F B83-F B85-F B81-F B82-F B86-F B87-F B88-F B89-F B90-F B97-F B91-F B94-F B95-F B92-F B93-F B96-F) (distinct I99 (+ I84 I83 I85 I81 I82 I86 I87 I88 I89 I90 I97 I91 I94 I95 I92 I93 I96)))))
(assert (not (and B98-F (not B84-F) (not B83-F) (not B85-F) (not B81-F) (not B82-F) (not B86-F) (not B87-F) (not B88-F) (not B89-F) (not B90-F) (not B97-F) (not B91-F) (not B94-F) (not B95-F) (not B92-F) (not B93-F) (not B96-F))))
(assert (not (and B98-F B72-F (distinct I99 (* I72 100)))))
(set-info :major-phase |control constraints|)
(push 1)
(assert B18-F)
(set-info :status sat)
(check-sat)
(push 1)
(assert B27-F)
(set-info :status sat)
(check-sat)
(push 1)
(assert B19-F)
(set-info :status sat)
(check-sat)
(push 1)
(assert B24-F)
(set-info :status sat)
(check-sat)
(push 1)
(assert B86-F)
(set-info :status sat)
(check-sat)
(push 1)
(assert B12-F)
(set-info :status sat)
(check-sat)
(push 1)
(assert B87-F)
(set-info :status sat)
(check-sat)
(push 1)
(assert B8-F)
(set-info :status sat)
(check-sat)
(push 1)
(assert B109-F)
(set-info :status sat)
(check-sat)
(push 1)
(assert B6-F)
(set-info :status sat)
(check-sat)
(push 1)
(assert B92-F)
(set-info :status sat)
(check-sat)
(push 1)
(assert B93-F)
(set-info :status sat)
(check-sat)
(push 1)
(assert B95-F)
(set-info :status sat)
(check-sat)
(push 1)
(assert B81-F)
(set-info :status sat)
(check-sat)
(push 1)
(assert B82-F)
(set-info :status sat)
(check-sat)
(push 1)
(assert B77-F)
(set-info :status unsat)
(check-sat)
(pop 1)
(push 1)
(assert B94-F)
(set-info :status sat)
(check-sat)
(push 1)
(assert B26-F)
(set-info :status sat)
(check-sat)
(push 1)
(assert B16-F)
(set-info :status sat)
(check-sat)
(push 1)
(assert B84-F)
(set-info :status sat)
(check-sat)
(push 1)
(assert B108-F)
(set-info :status sat)
(check-sat)
(push 1)
(assert B83-F)
(set-info :status sat)
(check-sat)
(push 1)
(assert B91-F)
(set-info :status sat)
(check-sat)
(push 1)
(assert B106-F)
(set-info :status sat)
(check-sat)
(push 1)
(assert B10-F)
(set-info :status sat)
(check-sat)
(push 1)
(assert B28-F)
(set-info :status sat)
(check-sat)
(push 1)
(assert B104-F)
(set-info :status sat)
(check-sat)
(push 1)
(assert B2-F)
(set-info :status unsat)
(check-sat)
(pop 1)
(push 1)
(assert B102-F)
(set-info :status sat)
(check-sat)
(push 1)
(assert B21-F)
(set-info :status sat)
(check-sat)
(push 1)
(assert B96-F)
(set-info :status sat)
(check-sat)
(push 1)
(assert B22-F)
(set-info :status sat)
(check-sat)
(push 1)
(assert B78-F)
(set-info :status unsat)
(check-sat)
(pop 1)
(push 1)
(assert B17-F)
(set-info :status sat)
(check-sat)
(push 1)
(assert B90-F)
(set-info :status sat)
(check-sat)
(push 1)
(assert B97-F)
(set-info :status sat)
(check-sat)
(push 1)
(assert B110-F)
(set-info :status sat)
(check-sat)
(push 1)
(assert B7-F)
(set-info :status sat)
(check-sat)
(push 1)
(assert B9-F)
(set-info :status sat)
(check-sat)
(push 1)
(assert B13-F)
(set-info :status sat)
(check-sat)
(push 1)
(assert B89-F)
(set-info :status sat)
(check-sat)
(push 1)
(assert B75-F)
(set-info :status unsat)
(check-sat)
(pop 1)
(push 1)
(assert B88-F)
(set-info :status sat)
(check-sat)
(push 1)
(assert B5-F)
(set-info :status sat)
(check-sat)
(push 1)
(assert B11-F)
(set-info :status sat)
(check-sat)
(push 1)
(assert B14-F)
(set-info :status sat)
(check-sat)
(push 1)
(assert B29-F)
(set-info :status sat)
(check-sat)
(push 1)
(assert B101-F)
(set-info :status sat)
(check-sat)
(push 1)
(assert B23-F)
(set-info :status sat)
(check-sat)
(push 1)
(assert B98-F)
(set-info :status sat)
(check-sat)
(push 1)
(assert B73-F)
(set-info :status sat)
(check-sat)
(push 1)
(assert B107-F)
(set-info :status sat)
(check-sat)
(push 1)
(assert B85-F)
(set-info :status sat)
(check-sat)
(push 1)
(assert B72-F)
(set-info :status sat)
(check-sat)
(exit)

